1867, 0, 0, 53, 3
1868, 0, 1, 42, 1
1869, 0, 2, 90, 0
1870, 0, 3, 85, 2
1871, 1, 0, 89, 1
1872, 1, 1, 94, 3
1873, 1, 2, 69, 0
1874, 1, 3, 83, 2
1875, 2, 0, 43, 2
1876, 2, 1, 53, 0
1877, 2, 2, 79, 1
1878, 2, 3, 35, 3
1879, 3, 0, 91, 0
1880, 3, 1, 60, 2
1881, 3, 2, 47, 1
1882, 3, 3, 78, 3
